(declare-const a Real)
(declare-const b Real)
(declare-const c Real)
(assert (= (+ a b c) 3))
(assert (> a 0))
(assert (> b 0))
(assert (> c 0))
(assert (not (<= (+ (* (pow (* (pow a (* 2656 c)) (pow (* b (pow a 3)) (* 672 b))) (pow (+ (* 664 c) (* 672 b)) -1)) (+ (* -672 b) (* -664 c))) (* -2208 a (pow c 4)) (* -2208 b (pow a 4)) (* -2136 c (pow b 4)) (* -736 a (pow b 4)) (* -736 b (pow c 4)) (* -672 (pow a 2) (pow c 3)) (* 27 c (pow (+ a b) 4)) (* 480 (pow b 3) (pow c 2)) (* 672 (pow a 2) (pow b 3)) (* 672 (pow b 2) (pow c 3)) (* 1824 (pow a 3) (pow c 2)) (* 1792 a b (pow c 3)) (* 2080 a c (pow b 3)) (* 2080 b c (pow a 3))) 0)))
(check-sat)
(get-model)
(exit)